NAME: cuum650.tsp
TYPE: TSP
COMMENT: User-generated TSP file
DIMENSION: 650
EDGE_WEIGHT_TYPE: EUC_2D
NODE_COORD_SECTION
1 47.0 429.0
2 286.0 491.0
3 185.0 183.0
4 433.0 51.0
5 343.0 477.0
6 565.0 643.0
7 83.0 324.0
8 336.0 441.0
9 254.0 316.0
10 610.0 648.0
11 342.0 301.0
12 523.0 216.0
13 396.0 254.0
14 164.0 279.0
15 109.0 482.0
16 81.0 650.0
17 36.0 34.0
18 578.0 561.0
19 316.0 134.0
20 209.0 151.0
21 419.0 77.0
22 298.0 461.0
23 388.0 350.0
24 389.0 527.0
25 218.0 564.0
26 243.0 78.0
27 6.0 526.0
28 155.0 473.0
29 117.0 158.0
30 453.0 38.0
31 115.0 125.0
32 318.0 477.0
33 353.0 617.0
34 419.0 509.0
35 339.0 114.0
36 40.0 527.0
37 14.0 469.0
38 395.0 349.0
39 170.0 128.0
40 384.0 358.0
41 400.0 497.0
42 328.0 107.0
43 367.0 436.0
44 410.0 496.0
45 405.0 559.0
46 94.0 127.0
47 197.0 105.0
48 583.0 393.0
49 559.0 359.0
50 261.0 440.0
51 434.0 137.0
52 454.0 557.0
53 595.0 457.0
54 208.0 196.0
55 359.0 595.0
56 266.0 51.0
57 331.0 269.0
58 618.0 505.0
59 10.0 620.0
60 646.0 308.0
61 324.0 121.0
62 334.0 6.0
63 239.0 245.0
64 308.0 205.0
65 383.0 452.0
66 138.0 454.0
67 158.0 37.0
68 378.0 406.0
69 605.0 195.0
70 496.0 55.0
71 117.0 543.0
72 375.0 7.0
73 516.0 621.0
74 267.0 258.0
75 228.0 624.0
76 644.0 551.0
77 389.0 420.0
78 364.0 90.0
79 420.0 303.0
80 353.0 404.0
81 99.0 39.0
82 499.0 606.0
83 89.0 522.0
84 566.0 225.0
85 449.0 33.0
86 119.0 155.0
87 108.0 229.0
88 606.0 235.0
89 187.0 214.0
90 226.0 485.0
91 353.0 57.0
92 321.0 495.0
93 361.0 569.0
94 356.0 346.0
95 477.0 308.0
96 536.0 515.0
97 580.0 441.0
98 53.0 609.0
99 395.0 317.0
100 520.0 510.0
101 540.0 328.0
102 217.0 354.0
103 58.0 76.0
104 379.0 94.0
105 487.0 29.0
106 515.0 604.0
107 529.0 588.0
108 308.0 441.0
109 333.0 222.0
110 417.0 266.0
111 577.0 11.0
112 121.0 520.0
113 434.0 636.0
114 196.0 305.0
115 183.0 283.0
116 571.0 634.0
117 72.0 514.0
118 1.0 579.0
119 15.0 553.0
120 517.0 448.0
121 337.0 535.0
122 445.0 396.0
123 533.0 277.0
124 84.0 75.0
125 146.0 546.0
126 92.0 392.0
127 607.0 446.0
128 574.0 469.0
129 27.0 624.0
130 240.0 342.0
131 204.0 41.0
132 467.0 254.0
133 215.0 137.0
134 69.0 377.0
135 528.0 613.0
136 127.0 491.0
137 308.0 16.0
138 213.0 328.0
139 141.0 575.0
140 245.0 335.0
141 624.0 426.0
142 10.0 47.0
143 291.0 524.0
144 511.0 32.0
145 398.0 84.0
146 265.0 398.0
147 66.0 594.0
148 352.0 389.0
149 182.0 92.0
150 275.0 635.0
151 551.0 495.0
152 86.0 260.0
153 281.0 232.0
154 299.0 44.0
155 405.0 204.0
156 567.0 176.0
157 76.0 649.0
158 510.0 54.0
159 627.0 498.0
160 260.0 1.0
161 463.0 194.0
162 527.0 619.0
163 591.0 579.0
164 306.0 179.0
165 340.0 469.0
166 115.0 434.0
167 17.0 611.0
168 537.0 315.0
169 146.0 454.0
170 509.0 335.0
171 483.0 531.0
172 142.0 595.0
173 516.0 165.0
174 385.0 378.0
175 417.0 592.0
176 256.0 444.0
177 147.0 337.0
178 170.0 338.0
179 476.0 164.0
180 270.0 94.0
181 526.0 134.0
182 512.0 325.0
183 391.0 205.0
184 381.0 210.0
185 355.0 75.0
186 466.0 615.0
187 581.0 536.0
188 117.0 593.0
189 570.0 29.0
190 408.0 111.0
191 272.0 308.0
192 211.0 621.0
193 60.0 530.0
194 175.0 609.0
195 434.0 299.0
196 143.0 342.0
197 11.0 469.0
198 647.0 139.0
199 379.0 552.0
200 302.0 443.0
201 153.0 35.0
202 631.0 44.0
203 483.0 310.0
204 11.0 47.0
205 292.0 315.0
206 577.0 498.0
207 18.0 514.0
208 23.0 83.0
209 546.0 459.0
210 310.0 66.0
211 493.0 333.0
212 234.0 407.0
213 172.0 595.0
214 221.0 475.0
215 403.0 601.0
216 510.0 554.0
217 299.0 221.0
218 442.0 493.0
219 23.0 99.0
220 12.0 292.0
221 125.0 523.0
222 487.0 62.0
223 518.0 93.0
224 250.0 105.0
225 264.0 451.0
226 119.0 492.0
227 352.0 259.0
228 520.0 584.0
229 17.0 46.0
230 30.0 352.0
231 204.0 182.0
232 38.0 401.0
233 636.0 248.0
234 377.0 610.0
235 346.0 431.0
236 31.0 550.0
237 307.0 487.0
238 623.0 427.0
239 595.0 134.0
240 66.0 371.0
241 575.0 12.0
242 276.0 507.0
243 566.0 597.0
244 34.0 214.0
245 211.0 380.0
246 228.0 412.0
247 596.0 493.0
248 108.0 458.0
249 224.0 219.0
250 374.0 553.0
251 489.0 389.0
252 229.0 504.0
253 181.0 53.0
254 276.0 109.0
255 448.0 160.0
256 209.0 583.0
257 423.0 428.0
258 180.0 217.0
259 2.0 183.0
260 19.0 264.0
261 107.0 208.0
262 145.0 348.0
263 379.0 573.0
264 493.0 202.0
265 317.0 473.0
266 37.0 51.0
267 338.0 500.0
268 56.0 397.0
269 494.0 178.0
270 24.0 353.0
271 638.0 624.0
272 647.0 124.0
273 279.0 577.0
274 402.0 601.0
275 350.0 50.0
276 302.0 249.0
277 44.0 309.0
278 362.0 616.0
279 49.0 582.0
280 312.0 552.0
281 228.0 249.0
282 543.0 119.0
283 293.0 21.0
284 631.0 543.0
285 456.0 337.0
286 85.0 525.0
287 145.0 139.0
288 459.0 143.0
289 606.0 608.0
290 344.0 469.0
291 227.0 332.0
292 383.0 307.0
293 442.0 450.0
294 337.0 86.0
295 128.0 118.0
296 552.0 562.0
297 600.0 317.0
298 257.0 330.0
299 46.0 543.0
300 226.0 509.0
301 100.0 390.0
302 340.0 209.0
303 528.0 560.0
304 92.0 426.0
305 217.0 613.0
306 526.0 626.0
307 198.0 405.0
308 395.0 643.0
309 647.0 473.0
310 359.0 649.0
311 376.0 556.0
312 266.0 360.0
313 163.0 385.0
314 102.0 365.0
315 156.0 236.0
316 7.0 518.0
317 51.0 344.0
318 646.0 132.0
319 486.0 556.0
320 51.0 377.0
321 2.0 505.0
322 195.0 153.0
323 598.0 545.0
324 281.0 381.0
325 378.0 572.0
326 541.0 627.0
327 130.0 536.0
328 494.0 548.0
329 534.0 431.0
330 628.0 488.0
331 244.0 313.0
332 220.0 178.0
333 342.0 615.0
334 350.0 255.0
335 158.0 360.0
336 585.0 148.0
337 438.0 302.0
338 152.0 363.0
339 291.0 329.0
340 333.0 383.0
341 264.0 399.0
342 343.0 217.0
343 188.0 581.0
344 122.0 402.0
345 104.0 143.0
346 577.0 88.0
347 442.0 297.0
348 186.0 365.0
349 341.0 562.0
350 496.0 378.0
351 316.0 478.0
352 196.0 90.0
353 5.0 163.0
354 249.0 445.0
355 42.0 262.0
356 270.0 586.0
357 264.0 591.0
358 546.0 420.0
359 262.0 78.0
360 638.0 403.0
361 399.0 644.0
362 618.0 528.0
363 473.0 258.0
364 410.0 290.0
365 252.0 555.0
366 176.0 321.0
367 292.0 162.0
368 243.0 206.0
369 154.0 314.0
370 434.0 139.0
371 313.0 293.0
372 528.0 60.0
373 180.0 435.0
374 185.0 363.0
375 461.0 171.0
376 582.0 468.0
377 247.0 27.0
378 580.0 63.0
379 150.0 643.0
380 622.0 431.0
381 607.0 341.0
382 518.0 383.0
383 538.0 403.0
384 263.0 416.0
385 454.0 623.0
386 643.0 429.0
387 324.0 138.0
388 615.0 308.0
389 201.0 311.0
390 601.0 208.0
391 371.0 545.0
392 647.0 596.0
393 317.0 84.0
394 187.0 524.0
395 311.0 453.0
396 197.0 496.0
397 532.0 138.0
398 439.0 274.0
399 567.0 625.0
400 382.0 301.0
401 387.0 100.0
402 435.0 469.0
403 642.0 269.0
404 132.0 15.0
405 30.0 490.0
406 122.0 593.0
407 76.0 322.0
408 390.0 465.0
409 72.0 516.0
410 341.0 190.0
411 564.0 30.0
412 90.0 531.0
413 315.0 56.0
414 445.0 511.0
415 401.0 89.0
416 56.0 152.0
417 287.0 469.0
418 491.0 562.0
419 411.0 251.0
420 203.0 225.0
421 110.0 493.0
422 552.0 446.0
423 584.0 384.0
424 569.0 283.0
425 318.0 387.0
426 307.0 609.0
427 179.0 30.0
428 74.0 401.0
429 380.0 215.0
430 141.0 121.0
431 112.0 74.0
432 364.0 56.0
433 23.0 300.0
434 630.0 215.0
435 175.0 337.0
436 467.0 36.0
437 501.0 325.0
438 340.0 188.0
439 164.0 521.0
440 471.0 250.0
441 577.0 413.0
442 180.0 328.0
443 289.0 66.0
444 6.0 77.0
445 89.0 502.0
446 618.0 89.0
447 67.0 278.0
448 351.0 110.0
449 76.0 267.0
450 440.0 391.0
451 352.0 483.0
452 362.0 109.0
453 225.0 428.0
454 482.0 612.0
455 537.0 14.0
456 104.0 171.0
457 560.0 26.0
458 509.0 82.0
459 173.0 391.0
460 50.0 618.0
461 409.0 613.0
462 506.0 311.0
463 507.0 370.0
464 621.0 557.0
465 607.0 12.0
466 223.0 363.0
467 342.0 91.0
468 178.0 30.0
469 457.0 227.0
470 433.0 440.0
471 647.0 52.0
472 236.0 582.0
473 166.0 344.0
474 40.0 638.0
475 649.0 186.0
476 630.0 28.0
477 380.0 248.0
478 207.0 232.0
479 285.0 164.0
480 640.0 284.0
481 438.0 167.0
482 274.0 115.0
483 116.0 364.0
484 276.0 249.0
485 283.0 314.0
486 443.0 547.0
487 103.0 76.0
488 278.0 384.0
489 69.0 216.0
490 501.0 331.0
491 176.0 434.0
492 625.0 102.0
493 153.0 70.0
494 301.0 122.0
495 179.0 171.0
496 343.0 100.0
497 436.0 486.0
498 520.0 251.0
499 18.0 545.0
500 603.0 458.0
501 533.0 489.0
502 302.0 498.0
503 272.0 419.0
504 30.0 112.0
505 524.0 237.0
506 434.0 313.0
507 308.0 191.0
508 351.0 74.0
509 263.0 427.0
510 168.0 301.0
511 619.0 82.0
512 183.0 385.0
513 500.0 485.0
514 71.0 186.0
515 451.0 459.0
516 487.0 308.0
517 140.0 140.0
518 598.0 167.0
519 112.0 218.0
520 500.0 351.0
521 181.0 285.0
522 26.0 255.0
523 40.0 21.0
524 92.0 504.0
525 498.0 125.0
526 479.0 499.0
527 308.0 629.0
528 519.0 197.0
529 59.0 205.0
530 244.0 220.0
531 171.0 622.0
532 221.0 17.0
533 439.0 484.0
534 244.0 415.0
535 32.0 562.0
536 128.0 617.0
537 342.0 259.0
538 200.0 647.0
539 451.0 225.0
540 45.0 550.0
541 624.0 572.0
542 227.0 238.0
543 430.0 566.0
544 248.0 253.0
545 602.0 400.0
546 19.0 334.0
547 15.0 334.0
548 165.0 188.0
549 392.0 195.0
550 64.0 294.0
551 150.0 369.0
552 325.0 551.0
553 529.0 165.0
554 107.0 312.0
555 269.0 205.0
556 512.0 487.0
557 97.0 224.0
558 611.0 195.0
559 645.0 500.0
560 457.0 140.0
561 315.0 306.0
562 491.0 193.0
563 34.0 498.0
564 420.0 234.0
565 506.0 341.0
566 480.0 185.0
567 361.0 190.0
568 325.0 285.0
569 3.0 533.0
570 91.0 170.0
571 624.0 244.0
572 383.0 6.0
573 648.0 522.0
574 70.0 142.0
575 642.0 472.0
576 330.0 247.0
577 266.0 625.0
578 565.0 456.0
579 107.0 356.0
580 399.0 464.0
581 502.0 109.0
582 539.0 351.0
583 19.0 214.0
584 251.0 451.0
585 450.0 247.0
586 57.0 274.0
587 372.0 255.0
588 485.0 184.0
589 598.0 324.0
590 431.0 57.0
591 596.0 247.0
592 403.0 539.0
593 399.0 269.0
594 550.0 264.0
595 591.0 285.0
596 370.0 560.0
597 358.0 497.0
598 358.0 241.0
599 138.0 357.0
600 383.0 3.0
601 590.0 566.0
602 251.0 389.0
603 392.0 611.0
604 597.0 99.0
605 402.0 181.0
606 613.0 99.0
607 159.0 19.0
608 606.0 322.0
609 191.0 227.0
610 273.0 518.0
611 203.0 62.0
612 462.0 142.0
613 366.0 341.0
614 77.0 292.0
615 326.0 434.0
616 196.0 233.0
617 274.0 582.0
618 235.0 540.0
619 344.0 257.0
620 411.0 282.0
621 354.0 341.0
622 498.0 12.0
623 280.0 589.0
624 184.0 195.0
625 83.0 447.0
626 10.0 229.0
627 119.0 504.0
628 319.0 15.0
629 267.0 541.0
630 479.0 119.0
631 89.0 240.0
632 219.0 622.0
633 605.0 248.0
634 364.0 316.0
635 63.0 559.0
636 407.0 587.0
637 315.0 512.0
638 292.0 507.0
639 237.0 461.0
640 177.0 528.0
641 339.0 291.0
642 601.0 440.0
643 385.0 322.0
644 171.0 583.0
645 378.0 503.0
646 630.0 46.0
647 405.0 21.0
648 582.0 178.0
649 303.0 310.0
650 301.0 626.0
EOF





